NAME: instance_1203
TYPE: TSP
DIMENSION: 20
EDGE_WEIGHT_TYPE: EUC_2D
NODE_COORD_SECTION
0 8.01 24.93
1 59.79 8.19
2 35.16 2.52
3 66.21 41.19
4 86.13 8.14
5 3.68 32.14
6 10.68 39.73
7 61.87 12.97
8 51.02 80.55
9 36.41 71.64
10 96.17 98.75
11 4.36 28.52
12 11.67 58.17
13 9.99 9.90
14 61.04 65.47
15 77.03 23.27
16 23.67 3.95
17 74.41 32.37
18 73.87 9.54
19 80.36 87.64
EOF
